 200 55 
 83 37 17 9 41 80 90 77 65 6 65 51 
 59 79 18 39 41 84 79 97 53 95 26 60 
 38 49 86 29 45 48 68 98 48 84 49 89 
 80 49 48 94 58 78 68 91 57 62 97 100 
 25 11 89 46 94 82 5 
 49 
 1 2 3 4 5 6 7 8 9 11 12 13 
 14 15 16 17 18 19 20 21 22 23 24 25 
 26 27 28 30 31 32 34 35 36 38 39 40 
 41 43 44 45 46 48 49 50 51 52 53 54 
 55 
 32 
 1 2 6 7 10 11 12 14 15 18 20 22 
 23 24 25 27 29 30 31 32 34 35 36 37 
 42 44 45 46 49 50 51 52 
 17 
 1 2 4 7 8 9 12 23 33 43 45 46 
 47 52 53 54 55 
 17 
 1 4 12 14 15 16 19 21 26 28 29 30 
 34 42 46 49 52 
 49 
 1 2 3 4 5 6 7 8 9 10 13 14 
 15 16 17 18 19 22 23 24 25 26 27 28 
 29 31 32 33 34 35 36 37 38 39 40 41 
 42 44 45 46 47 48 49 50 51 52 53 54 
 55 
 55 
 1 2 3 4 5 6 7 8 9 10 11 12 
 13 14 15 16 17 18 19 20 21 22 23 24 
 25 26 27 28 29 30 31 32 33 34 35 36 
 37 38 39 40 41 42 43 44 45 46 47 48 
 49 50 51 52 53 54 55 
 49 
 1 2 3 4 5 6 7 8 9 10 11 12 
 13 14 15 17 18 19 20 21 22 23 24 25 
 26 27 28 29 30 31 33 34 35 36 37 38 
 39 41 42 43 44 45 46 47 48 50 52 53 
 55 
 27 
 1 2 3 4 7 9 10 12 15 18 19 20 
 21 24 30 31 32 35 36 37 39 40 45 46 
 50 52 55 
 50 
 1 2 4 5 6 7 8 9 10 11 12 13 
 14 16 17 18 19 20 21 22 23 24 26 27 
 29 30 31 32 34 35 36 37 38 39 40 41 
 42 43 44 45 46 47 48 49 50 51 52 53 
 54 55 
 49 
 1 2 3 4 6 7 8 9 10 11 12 13 
 14 15 16 17 18 19 20 23 24 25 26 28 
 29 30 31 32 33 34 35 36 38 39 40 41 
 42 43 44 45 46 47 48 49 50 52 53 54 
 55 
 42 
 1 2 3 4 5 6 7 9 10 11 12 14 
 16 17 19 20 21 22 24 25 26 27 28 32 
 33 34 35 36 37 38 39 40 41 42 43 44 
 46 48 49 50 51 54 
 40 
 1 2 3 4 8 9 10 11 12 13 14 15 
 16 17 18 19 20 21 24 25 26 27 28 29 
 30 31 35 36 37 39 41 42 43 44 45 50 
 51 52 53 55 
 2 
 4 52 
 3 
 1 5 38 
 13 
 13 17 18 20 27 28 30 32 35 38 39 54 
 55 
 6 
 20 30 31 36 37 55 
 30 
 2 3 4 5 9 11 12 13 14 16 19 20 
 23 24 25 27 30 32 36 37 41 43 45 46 
 47 48 50 52 53 54 
 28 
 1 2 4 6 7 8 9 13 14 16 19 26 
 27 28 29 35 37 39 40 43 44 46 48 49 
 50 51 53 54 
 55 
 1 2 3 4 5 6 7 8 9 10 11 12 
 13 14 15 16 17 18 19 20 21 22 23 24 
 25 26 27 28 29 30 31 32 33 34 35 36 
 37 38 39 40 41 42 43 44 45 46 47 48 
 49 50 51 52 53 54 55 
 35 
 1 2 3 4 7 11 15 18 19 21 22 23 
 26 29 30 31 32 34 35 38 40 41 42 43 
 44 45 46 47 48 50 51 52 53 54 55 
 19 
 2 3 8 10 11 14 15 17 18 20 21 33 
 36 37 39 48 50 53 54 
 10 
 7 16 19 20 26 30 31 50 51 55 
 49 
 1 2 3 4 5 6 7 8 9 10 11 12 
 13 14 15 16 17 20 21 22 23 24 25 26 
 27 28 29 30 31 32 33 34 35 36 37 38 
 39 41 42 43 44 46 48 49 50 52 53 54 
 55 
 38 
 1 2 3 4 5 6 7 8 10 11 12 13 
 14 16 17 23 24 26 27 29 30 32 33 35 
 36 37 38 40 41 42 44 45 47 49 51 53 
 54 55 
 8 
 10 13 22 23 24 29 33 37 
 22 
 1 9 12 13 14 21 23 24 26 28 31 32 
 37 38 40 42 45 48 50 51 54 55 
 36 
 2 3 6 7 9 10 13 14 16 17 19 20 
 22 24 25 27 28 34 35 36 37 38 39 40 
 41 42 43 45 46 48 49 50 51 53 54 55 
 35 
 1 2 3 4 6 7 9 14 16 18 19 20 
 21 22 23 24 25 26 27 29 32 33 34 36 
 37 38 39 42 43 45 46 50 52 53 54 
 40 
 5 6 7 8 9 10 11 13 15 17 19 20 
 21 24 25 27 28 30 31 32 34 35 36 37 
 38 39 41 42 43 44 45 46 47 48 49 50 
 51 53 54 55 
 47 
 1 2 4 5 6 8 9 11 12 13 14 15 
 16 17 18 19 20 21 22 23 24 26 27 28 
 29 30 32 33 34 35 36 37 38 39 40 43 
 44 45 46 47 48 50 51 52 53 54 55 
 48 
 1 2 3 4 6 7 8 9 10 11 12 13 
 14 15 16 17 18 20 22 23 24 25 27 28 
 30 31 32 33 34 35 37 38 39 40 41 42 
 43 44 45 46 47 48 49 50 51 52 53 54 
 2 
 16 30 
 13 
 3 4 5 6 16 19 21 28 33 34 41 46 
 55 
 29 
 4 6 7 8 13 14 16 17 18 20 21 25 
 27 28 29 30 31 35 37 40 41 45 46 47 
 48 52 53 54 55 
 50 
 1 2 3 4 6 7 8 9 10 11 12 13 
 14 15 16 17 19 22 23 24 25 26 27 28 
 29 30 31 32 33 34 35 36 37 38 39 40 
 41 42 43 44 45 46 47 48 49 50 51 52 
 53 54 
 6 
 2 5 11 19 46 54 
 53 
 1 2 3 4 5 6 7 8 9 10 11 12 
 13 14 15 16 18 19 20 21 22 23 24 25 
 26 27 28 29 30 31 32 33 34 35 36 37 
 38 39 40 41 42 43 44 45 46 47 48 49 
 50 51 53 54 55 
 41 
 1 2 3 6 7 10 11 12 13 14 15 16 
 17 19 21 23 24 25 27 29 30 31 32 33 
 34 35 36 41 42 43 44 45 46 47 48 49 
 50 51 52 53 54 
 31 
 1 4 6 11 12 13 14 15 17 21 22 23 
 27 28 29 30 31 33 35 39 40 41 42 43 
 45 46 48 50 51 52 55 
 2 
 23 53 
 49 
 2 3 4 5 6 7 8 9 10 11 12 13 
 14 15 16 17 18 19 20 21 22 23 24 25 
 26 28 29 30 31 33 34 35 36 37 38 39 
 40 41 42 43 44 45 47 48 49 51 52 53 
 55 
 10 
 8 9 12 13 14 32 33 36 39 55 
 40 
 1 2 4 5 7 9 10 11 13 14 15 17 
 18 19 21 24 26 29 30 31 33 35 36 37 
 38 39 40 41 42 43 44 45 46 47 49 50 
 52 53 54 55 
 31 
 1 2 6 8 9 16 17 18 20 22 25 26 
 27 28 29 30 34 35 36 38 39 40 42 44 
 45 46 47 50 51 52 53 
 25 
 5 6 8 9 16 19 23 24 27 31 32 33 
 34 35 37 38 39 40 41 43 49 50 51 52 
 54 
 7 
 3 7 17 21 29 30 36 
 16 
 4 16 21 24 27 30 36 37 38 40 42 44 
 48 50 51 55 
 20 
 1 3 4 5 10 11 17 18 26 28 29 30 
 33 36 44 45 46 49 52 55 
 5 
 3 9 10 13 37 
 28 
 1 3 7 9 10 13 15 17 18 19 20 24 
 26 29 33 34 35 37 40 43 44 45 46 47 
 48 50 54 55 
 54 
 1 2 3 4 5 6 7 8 9 10 11 12 
 13 14 15 16 17 18 19 20 21 22 23 24 
 25 27 28 29 30 31 32 33 34 35 36 37 
 38 39 40 41 42 43 44 45 46 47 48 49 
 50 51 52 53 54 55 
 30 
 2 3 8 11 12 14 15 16 18 19 20 21 
 23 26 27 30 31 32 33 36 37 38 42 43 
 46 49 51 52 53 55 
 13 
 1 3 4 7 9 11 13 24 27 32 34 44 
 54 
 50 
 1 2 3 4 5 6 7 8 10 11 12 13 
 14 15 16 17 18 19 20 22 23 24 25 26 
 27 28 29 30 31 32 33 34 35 36 37 38 
 39 40 42 43 44 45 46 48 49 50 51 53 
 54 55 
 17 
 2 3 9 12 14 18 21 22 25 27 28 32 
 33 34 36 43 48 
 43 
 1 3 4 5 6 7 9 12 13 14 15 16 
 17 18 19 20 21 22 23 24 25 27 30 31 
 32 33 34 35 37 38 39 40 41 42 43 44 
 46 47 48 49 50 52 55 
 26 
 2 3 5 6 7 9 10 12 13 14 17 20 
 21 25 29 30 31 37 39 41 43 45 46 48 
 51 54 
 37 
 1 2 3 4 5 7 8 9 10 13 14 15 
 16 19 20 22 23 28 31 33 34 35 36 37 
 38 39 41 42 43 44 47 49 50 52 53 54 
 55 
 11 
 1 14 25 27 31 35 39 40 42 49 53 
 28 
 3 4 8 10 11 13 14 15 16 17 18 24 
 28 29 30 33 37 38 41 44 45 46 47 48 
 50 51 52 54 
 44 
 1 2 3 4 5 6 7 9 10 11 12 13 
 14 15 16 17 18 19 21 22 23 24 25 26 
 27 28 29 30 32 33 34 35 37 38 39 40 
 41 42 43 46 47 48 51 54 
 39 
 1 2 8 9 11 12 13 15 16 17 18 20 
 21 22 23 24 25 26 27 28 29 31 32 33 
 34 37 40 42 43 44 45 46 47 49 50 51 
 52 53 55 
 48 
 1 2 4 5 7 8 9 10 11 13 14 16 
 17 18 19 20 21 22 23 24 25 26 28 30 
 31 32 34 35 36 37 38 39 40 41 42 43 
 44 45 46 47 48 49 50 51 52 53 54 55 
 27 
 3 5 6 10 11 13 16 21 22 25 27 28 
 29 32 33 34 35 37 38 40 41 42 43 45 
 47 50 51 
 30 
 2 3 4 5 6 8 9 10 12 13 14 16 
 17 22 28 29 33 34 35 36 37 39 40 41 
 44 45 47 52 54 55 
 24 
 1 2 3 5 10 11 15 16 18 19 20 26 
 27 28 30 34 38 40 41 43 47 48 49 54 
 55 
 1 2 3 4 5 6 7 8 9 10 11 12 
 13 14 15 16 17 18 19 20 21 22 23 24 
 25 26 27 28 29 30 31 32 33 34 35 36 
 37 38 39 40 41 42 43 44 45 46 47 48 
 49 50 51 52 53 54 55 
 43 
 1 2 3 4 5 6 7 8 9 10 11 12 
 13 14 15 17 18 19 20 22 23 24 25 27 
 32 34 35 36 37 38 41 42 43 44 46 47 
 48 49 50 51 52 53 55 
 7 
 8 15 23 27 37 47 55 
 17 
 5 10 15 16 18 20 23 24 30 32 35 37 
 41 43 51 54 55 
 29 
 2 7 8 9 11 14 15 16 18 21 22 23 
 24 26 27 28 30 31 32 33 34 36 39 40 
 41 42 44 45 46 
 5 
 11 20 34 52 53 
 38 
 1 2 3 4 5 6 8 11 13 14 15 17 
 18 20 22 23 24 25 26 27 28 29 31 32 
 34 35 36 38 39 41 42 43 44 50 51 53 
 54 55 
 14 
 1 2 4 6 8 12 14 24 25 31 32 38 
 45 53 
 27 
 1 6 7 8 9 10 11 13 16 17 18 20 
 23 24 25 30 32 33 38 40 42 43 44 45 
 47 48 51 
 36 
 2 3 4 5 6 7 8 9 11 12 13 14 
 16 19 22 23 25 27 28 29 30 31 33 34 
 38 39 40 41 42 43 46 48 49 51 52 55 
 4 
 14 19 49 55 
 47 
 1 2 3 4 5 6 7 8 9 10 11 12 
 13 14 15 16 17 19 20 21 22 23 26 27 
 28 29 30 31 32 33 34 35 36 37 39 40 
 41 42 45 46 47 48 49 50 51 54 55 
 10 
 14 16 19 33 35 37 42 43 44 53 
 48 
 1 2 3 4 5 6 8 10 11 12 13 14 
 15 16 17 19 21 22 23 24 25 26 27 28 
 29 30 31 32 33 34 35 36 37 38 39 40 
 41 42 43 44 46 47 48 49 50 51 52 54 
 14 
 6 11 14 22 29 30 32 33 36 38 42 45 
 48 52 
 40 
 1 2 3 4 6 10 12 13 14 15 16 17 
 19 20 24 25 27 28 30 31 32 33 34 35 
 37 39 40 41 42 43 44 45 46 49 50 51 
 52 53 54 55 
 6 
 6 9 11 14 33 41 
 3 
 26 44 50 
 17 
 5 7 8 10 11 13 16 17 18 30 36 37 
 43 44 45 49 52 
 47 
 1 2 3 4 5 6 7 8 9 10 11 12 
 13 16 18 20 21 22 23 25 26 27 28 29 
 30 31 32 33 34 35 36 37 39 40 42 43 
 44 45 46 47 48 49 50 51 53 54 55 
 43 
 1 3 4 5 6 7 8 9 10 12 13 14 
 17 18 19 20 21 22 24 25 26 27 28 29 
 30 31 32 34 35 37 38 40 41 42 43 45 
 46 47 48 49 52 53 55 
 34 
 1 2 3 4 5 6 8 11 12 14 15 18 
 19 25 26 27 29 31 32 34 35 36 37 38 
 40 42 44 45 47 48 49 51 52 53 
 14 
 4 7 9 11 13 17 18 22 25 29 32 33 
 43 46 
 13 
 8 9 10 21 26 29 36 39 43 44 45 53 
 54 
 51 
 1 2 3 4 5 6 7 8 10 11 12 13 
 14 16 17 18 19 20 21 22 23 24 25 26 
 27 28 29 30 31 33 34 35 36 37 38 39 
 40 41 42 43 44 45 46 47 49 50 51 52 
 53 54 55 
 29 
 1 2 6 10 13 17 19 20 21 23 25 27 
 29 33 34 35 37 38 39 40 41 42 43 45 
 46 48 49 52 53 
 32 
 2 4 5 7 8 9 11 13 14 16 19 23 
 25 26 27 28 30 31 34 35 36 39 40 45 
 46 48 49 50 51 53 54 55 
 43 
 2 5 6 7 8 9 10 14 15 16 17 18 
 19 20 21 22 23 24 25 26 27 30 31 32 
 34 35 37 38 39 40 41 42 43 44 45 46 
 47 48 49 51 52 53 55 
 21 
 1 3 4 5 9 13 14 15 16 18 22 24 
 32 34 35 38 42 43 46 49 54 
 2 
 16 32 
 36 
 2 3 4 5 6 7 9 10 12 13 14 15 
 16 18 20 24 25 27 28 29 30 31 32 34 
 38 40 43 44 45 46 48 50 51 53 54 55 
 29 
 2 3 4 6 8 11 14 15 17 18 19 21 
 26 27 28 31 33 35 36 37 38 40 42 43 
 44 46 49 50 55 
 53 
 1 2 3 4 5 6 7 8 9 10 11 12 
 13 14 15 16 17 18 19 20 21 22 23 24 
 25 26 27 28 29 30 31 32 33 34 35 36 
 37 38 39 40 41 42 43 44 45 46 47 50 
 51 52 53 54 55 
 42 
 1 2 4 6 7 8 9 10 11 12 14 15 
 16 17 18 19 21 23 24 25 26 27 28 29 
 30 31 32 33 35 36 39 40 42 43 44 46 
 49 50 51 52 53 55 
 2 
 10 12 
 23 
 2 7 10 12 13 17 18 19 24 30 31 32 
 34 37 39 41 42 43 45 46 47 48 53 
 22 
 1 3 5 7 8 13 14 17 19 23 27 31 
 35 36 37 38 43 46 47 48 49 55 
 29 
 3 8 9 10 13 14 16 18 21 22 23 24 
 25 27 28 29 33 34 35 38 39 40 41 44 
 46 50 51 52 53 
 33 
 3 7 8 9 11 12 14 15 17 20 21 22 
 23 25 26 27 28 30 31 32 33 34 35 41 
 42 44 45 46 49 50 52 53 55 
 12 
 7 11 12 13 14 29 32 47 48 49 51 52 
 31 
 1 4 5 6 7 9 10 12 13 19 20 23 
 26 27 29 30 31 33 34 36 37 38 39 41 
 42 45 49 50 51 53 55 
 55 
 1 2 3 4 5 6 7 8 9 10 11 12 
 13 14 15 16 17 18 19 20 21 22 23 24 
 25 26 27 28 29 30 31 32 33 34 35 36 
 37 38 39 40 41 42 43 44 45 46 47 48 
 49 50 51 52 53 54 55 
 44 
 1 3 4 5 6 7 8 9 10 12 13 15 
 16 17 19 20 21 22 23 24 25 27 28 29 
 30 31 32 33 34 35 36 37 39 40 41 43 
 44 45 47 48 49 50 52 53 
 24 
 1 8 10 13 14 18 19 20 22 24 26 29 
 30 31 34 35 39 42 45 46 47 48 49 52 
 22 
 4 7 8 9 10 12 14 15 16 18 23 30 
 33 34 35 36 37 40 47 49 51 52 
 49 
 1 2 3 4 5 6 7 8 9 10 11 12 
 14 16 17 18 19 21 22 23 25 26 27 28 
 29 30 32 33 34 35 36 37 38 39 40 41 
 42 43 45 46 47 48 49 50 51 52 53 54 
 55 
 6 
 6 10 16 32 48 53 
 22 
 1 9 10 13 15 19 20 24 26 27 30 33 
 35 39 41 43 46 47 49 53 54 55 
 19 
 6 7 10 15 16 17 18 24 26 28 30 32 
 34 36 39 42 43 49 55 
 52 
 1 2 3 4 5 6 7 8 9 10 11 12 
 13 14 15 16 17 18 19 20 21 22 23 24 
 25 26 27 28 29 30 31 32 33 34 35 37 
 38 40 41 42 43 44 45 46 47 48 49 50 
 52 53 54 55 
 16 
 3 4 7 8 10 12 20 21 28 29 36 38 
 39 46 48 51 
 21 
 2 6 7 8 9 11 14 16 20 21 26 29 
 30 32 34 39 42 43 46 52 53 
 16 
 2 4 5 13 16 17 20 29 37 38 43 44 
 48 51 52 54 
 32 
 1 2 3 4 6 8 10 11 13 14 15 16 
 18 19 22 24 29 31 33 35 36 37 40 41 
 43 45 46 47 48 50 53 54 
 34 
 2 3 4 5 6 8 9 10 14 18 23 24 
 25 26 27 28 29 31 34 35 36 37 38 41 
 42 43 44 46 47 48 49 50 52 54 
 40 
 1 2 3 5 7 8 9 10 11 12 13 14 
 15 16 17 19 20 21 22 24 27 28 29 30 
 33 34 36 37 39 41 42 43 44 45 46 47 
 49 50 51 52 
 32 
 1 2 5 6 10 11 12 13 14 15 17 18 
 19 21 23 25 26 27 28 30 32 34 38 41 
 43 45 46 49 50 51 54 55 
 19 
 2 4 5 14 16 17 21 23 26 28 34 35 
 36 37 38 39 42 45 55 
 10 
 15 16 20 29 31 34 37 43 53 55 
 21 
 2 3 8 9 15 16 17 18 20 23 28 30 
 34 35 36 42 48 50 53 54 55 
 8 
 2 11 38 44 45 47 52 55 
 54 
 1 2 3 4 5 6 7 8 9 10 11 12 
 13 14 15 16 17 18 19 20 21 22 23 24 
 25 26 27 28 29 30 31 32 33 34 35 36 
 37 39 40 41 42 43 44 45 46 47 48 49 
 50 51 52 53 54 55 
 37 
 1 2 4 5 7 9 10 11 12 13 14 17 
 19 20 22 24 26 27 28 29 31 32 33 34 
 35 39 41 42 43 46 47 48 50 51 53 54 
 55 
 18 
 1 4 5 6 8 9 12 14 15 22 27 30 
 40 44 48 49 51 52 
 11 
 4 9 10 12 19 22 33 35 43 49 52 
 49 
 1 2 3 4 5 7 8 9 11 12 13 14 
 15 16 17 19 20 21 22 23 24 25 26 27 
 28 29 30 32 33 34 35 36 37 38 39 40 
 41 42 43 44 45 46 48 49 51 52 53 54 
 55 
 22 
 6 7 10 13 15 21 22 23 24 25 29 30 
 34 35 36 37 45 47 50 51 53 55 
 46 
 1 2 3 5 7 9 10 12 13 14 15 16 
 17 18 19 20 21 22 23 24 25 26 27 28 
 29 30 31 33 35 37 38 39 40 41 44 45 
 46 47 48 49 50 51 52 53 54 55 
 26 
 1 5 11 13 15 17 20 21 22 23 24 26 
 27 31 34 36 37 38 40 43 44 45 49 53 
 54 55 
 52 
 1 2 3 4 5 7 8 9 10 11 12 13 
 14 15 16 18 19 20 21 22 23 24 25 26 
 27 28 29 30 31 32 33 34 35 36 37 38 
 39 40 41 42 43 44 45 46 47 49 50 51 
 52 53 54 55 
 22 
 1 2 3 5 6 8 9 14 16 18 19 22 
 23 24 25 36 42 43 44 49 50 51 
 30 
 2 6 7 9 10 16 17 19 20 23 24 25 
 27 28 29 30 32 33 34 39 40 42 43 44 
 45 46 47 50 51 53 
 20 
 1 3 6 8 9 10 13 19 22 23 27 30 
 35 38 41 42 43 49 54 55 
 38 
 1 2 10 12 13 14 15 17 18 19 20 22 
 23 24 26 28 29 31 32 33 34 35 36 37 
 38 39 41 42 43 44 46 47 48 50 51 53 
 54 55 
 34 
 1 4 5 7 9 10 11 12 13 14 15 17 
 18 19 20 21 22 24 25 28 29 30 33 35 
 36 38 39 43 44 45 49 52 53 55 
 8 
 1 9 14 16 21 25 40 41 
 49 
 1 2 3 4 5 6 7 8 9 10 11 12 
 13 14 15 16 17 18 19 20 22 23 24 25 
 26 27 28 29 30 31 32 33 34 36 38 39 
 40 41 42 44 45 47 48 49 50 51 52 53 
 54 
 6 
 4 6 17 45 49 50 
 30 
 1 2 4 11 13 14 15 16 19 20 21 22 
 23 24 26 28 29 30 34 35 37 38 40 41 
 43 44 47 49 52 54 
 49 
 1 2 3 5 8 9 11 12 13 14 15 16 
 17 18 19 20 21 22 23 24 25 26 27 28 
 29 30 31 32 33 34 35 36 37 38 39 40 
 41 42 43 44 45 46 47 48 51 52 53 54 
 55 
 19 
 1 2 3 8 11 12 20 29 30 34 37 39 
 41 43 45 46 48 52 53 
 26 
 1 2 8 9 14 16 17 18 19 22 23 26 
 27 28 31 32 35 36 39 43 44 45 46 47 
 48 49 
 48 
 2 3 4 5 6 8 9 11 12 13 14 15 
 16 17 18 19 21 22 23 24 25 26 27 28 
 29 30 31 33 34 35 36 37 38 39 40 41 
 43 44 45 46 47 48 49 50 52 53 54 55 
 5 
 8 11 16 38 53 
 3 
 6 40 41 
 5 
 4 5 8 25 28 
 38 
 1 2 3 4 5 6 7 8 9 11 12 13 
 14 19 20 21 22 25 26 27 28 29 30 34 
 35 37 38 40 42 43 44 46 47 48 49 50 
 53 54 
 47 
 1 3 4 6 7 8 9 10 11 12 13 14 
 15 16 17 18 19 22 23 24 25 28 29 30 
 31 32 33 34 35 36 37 39 41 42 43 44 
 45 46 47 48 49 50 51 52 53 54 55 
 20 
 2 6 8 9 10 15 17 19 20 21 22 23 
 24 28 32 39 42 43 47 52 
 9 
 11 15 19 21 23 29 30 32 38 
 48 
 1 2 3 4 5 6 7 8 9 11 12 13 
 14 15 16 17 18 19 20 21 23 24 25 27 
 28 29 30 31 32 33 34 35 37 38 39 40 
 41 42 45 46 47 48 49 50 51 53 54 55 
 47 
 1 2 4 5 6 7 8 9 10 11 12 13 
 14 16 17 18 19 20 21 22 23 25 26 27 
 28 29 30 32 35 36 37 38 39 41 42 43 
 44 45 46 47 48 50 51 52 53 54 55 
 34 
 2 4 6 8 9 10 11 13 14 16 18 19 
 20 21 22 26 27 28 31 32 35 36 37 38 
 42 43 45 46 47 49 50 51 52 53 
 13 
 3 8 18 28 29 32 36 38 42 43 47 50 
 53 
 21 
 3 7 8 10 11 21 22 23 26 29 31 33 
 34 40 42 45 49 51 52 53 54 
 45 
 1 2 3 4 5 6 7 8 9 11 12 13 
 14 15 16 17 18 19 21 23 25 26 27 28 
 29 30 31 32 33 34 37 38 39 40 41 42 
 45 46 47 49 50 52 53 54 55 
 45 
 2 3 4 5 6 7 8 9 11 12 13 14 
 15 18 19 20 22 24 25 26 27 28 29 30 
 31 32 33 35 36 37 39 40 41 42 43 44 
 45 46 47 48 50 51 52 53 54 
 55 
 1 2 3 4 5 6 7 8 9 10 11 12 
 13 14 15 16 17 18 19 20 21 22 23 24 
 25 26 27 28 29 30 31 32 33 34 35 36 
 37 38 39 40 41 42 43 44 45 46 47 48 
 49 50 51 52 53 54 55 
 35 
 1 2 3 4 5 6 7 10 11 12 14 15 
 16 17 18 20 22 23 26 27 28 29 32 33 
 34 36 40 42 43 46 47 48 50 53 55 
 32 
 1 5 6 7 8 9 12 13 16 18 19 20 
 21 22 24 27 30 31 35 36 37 38 39 40 
 41 43 44 45 47 48 51 53 
 19 
 3 7 8 14 22 24 25 34 35 36 38 39 
 41 43 46 50 52 54 55 
 6 
 1 8 11 12 13 47 
 50 
 1 2 4 5 6 7 8 10 11 12 13 14 
 15 17 18 19 20 21 22 23 24 26 27 28 
 29 30 31 32 33 34 35 36 37 38 39 40 
 41 42 43 44 45 46 48 49 50 51 52 53 
 54 55 
 12 
 8 11 12 18 20 25 35 37 40 43 46 51 
 42 
 1 2 3 4 6 7 8 10 11 12 13 16 
 18 19 21 23 24 25 26 27 28 29 30 31 
 32 33 35 37 38 39 41 42 43 44 47 48 
 49 50 51 52 53 55 
 17 
 1 2 5 7 12 15 17 18 25 30 31 34 
 35 40 42 45 53 
 45 
 1 2 4 6 9 10 11 12 13 14 15 16 
 17 18 19 20 21 22 23 24 25 26 27 28 
 31 32 33 34 35 36 37 38 39 40 41 42 
 43 45 47 48 50 51 52 53 55 
 12 
 4 12 13 30 33 34 37 38 40 46 51 54 
 29 
 1 3 5 6 7 8 9 11 12 13 15 17 
 18 19 23 25 27 30 32 37 38 41 43 45 
 46 50 51 53 55 
 19 
 1 7 10 16 19 20 22 25 27 28 31 32 
 43 46 48 51 52 54 55 
 43 
 1 2 3 4 6 7 9 11 12 13 14 15 
 17 20 21 22 23 24 25 26 27 30 31 32 
 33 34 35 36 37 38 39 41 42 43 44 45 
 46 47 48 49 50 53 54 
 9 
 1 2 5 10 12 30 39 43 46 
 42 
 1 3 4 5 6 9 11 12 13 14 16 17 
 18 19 20 21 23 24 25 27 28 29 30 31 
 32 33 35 36 37 38 39 42 43 44 45 47 
 48 50 52 53 54 55 
 33 
 1 2 5 6 8 13 14 18 19 20 21 22 
 24 28 29 31 32 33 34 37 38 39 40 43 
 44 45 47 48 49 50 52 53 54 
 25 
 1 2 3 6 8 10 11 12 13 17 20 23 
 25 26 27 31 34 40 43 44 46 49 50 51 
 53 
 21 
 3 4 7 8 19 20 21 22 23 30 32 36 
 37 38 39 41 45 46 47 52 54 
 37 
 1 2 3 4 5 6 9 10 11 12 13 14 
 15 16 17 18 19 21 24 25 26 30 31 32 
 33 34 35 36 42 43 45 46 48 49 50 51 
 53 
 50 
 1 2 3 4 5 6 7 8 9 10 11 12 
 13 14 15 16 17 18 19 20 21 22 23 24 
 26 27 28 29 30 31 32 33 34 35 36 37 
 38 39 40 41 42 43 44 46 49 50 51 52 
 54 55 
 33 
 1 3 4 5 8 9 10 14 15 17 18 20 
 23 24 26 29 31 32 34 35 36 37 38 40 
 43 45 46 48 49 51 53 54 55 
 26 
 3 9 10 12 14 15 16 21 24 25 26 27 
 28 29 31 34 35 36 40 41 44 46 50 52 
 53 54 
 29 
 1 3 4 5 6 7 9 12 15 16 17 19 
 23 26 27 28 30 31 32 34 35 37 38 40 
 43 46 49 50 54 
 9 
 1 8 20 24 40 44 49 50 54 
 20 
 1 6 11 12 13 20 21 22 24 26 27 28 
 32 35 39 43 46 47 50 55 
 4 
 4 21 25 32 
 12 
 9 10 16 18 29 32 33 34 38 39 42 54 
 23 
 2 5 9 12 14 22 23 24 26 28 29 30 
 32 33 34 36 39 40 42 47 49 51 55 
 6 
 11 17 18 24 39 49 
 40 
 1 2 4 5 6 7 13 17 18 19 20 21 
 22 23 24 26 27 28 29 30 33 34 35 36 
 37 38 39 40 41 42 43 45 46 47 48 49 
 50 51 52 55 
 11 
 2 4 6 21 25 26 28 36 42 48 55 
 47 
 1 2 3 4 5 6 7 8 9 11 12 13 
 14 15 17 18 19 20 21 22 23 24 25 26 
 27 28 29 30 31 32 33 34 35 41 42 43 
 44 45 46 47 49 50 51 52 53 54 55 
 16 
 3 5 8 10 14 19 22 25 33 34 39 42 
 46 47 50 51 
 18 
 2 5 12 14 17 19 25 29 35 38 39 41 
 43 45 49 50 51 54 
 13 
 2 7 10 16 24 25 33 36 45 47 52 54 
 55 
 12 
 3 4 7 9 21 24 25 27 28 32 42 46 
 